
d1 = 1;
d2 = 1;
Cmax = 20000000;
Nodes = array1d(1..22, [1, 2, 3, 4, 5, 6, 7, 8, 9, 10, 11, 12, 13, 14, 15, 16, 17, 18, 19, 20, 21, 22]);
Link_info = array2d(1..60, 1..4, [
1,   3, 1, 10000000, 1, 6, 1, 10000000, 1, 12, 1, 10000000, 
2,   4, 1, 10000000, 2, 7, 1, 10000000, 2, 17, 1, 10000000, 
3,   1, 1, 10000000, 3, 10, 1, 10000000, 
4,   5, 1, 10000000, 4, 2, 1, 10000000, 4, 8, 1, 10000000, 
5,   4, 1, 10000000, 5, 6, 1, 10000000, 5, 7, 1, 10000000, 5, 9, 1, 10000000, 
6,   5, 1, 10000000, 6, 10, 1, 10000000, 6, 1, 1, 10000000, 6, 16, 1, 10000000, 
7,  11, 1, 10000000, 7, 5, 1, 10000000, 7, 2, 1, 10000000, 7, 16, 1, 10000000, 
8,   4, 1, 10000000, 8, 15, 1, 20000000, 8, 9, 1, 10000000, 
9,   5, 1, 10000000, 9, 8, 1, 10000000, 9, 10, 1, 10000000, 9, 21, 1, 20000000,
10,  3, 1, 10000000, 10, 6, 1, 10000000, 10, 9, 1, 10000000, 10, 22, 1, 20000000,
11, 14, 1, 10000000, 11, 7, 1, 10000000, 11, 17, 1, 10000000, 11, 20, 1, 20000000,  
12, 18, 1, 10000000, 12, 16, 1, 10000000, 12, 1, 1, 10000000, 
13, 18, 1, 20000000, 
14, 11, 1, 10000000, 14, 18, 1, 10000000, 14, 16, 1, 10000000, 14, 19, 1, 20000000, 
15,  8, 1, 20000000, 
16, 14, 1, 10000000, 16, 6, 1, 10000000, 16, 7, 1, 10000000, 16, 12, 1, 10000000, 
17, 11, 1, 10000000, 17, 2, 1, 10000000, 
18, 13, 1, 20000000, 18, 14, 1, 10000000, 18, 12, 1, 10000000,
19, 14, 1, 20000000, 
20, 11, 1, 20000000,
21,  9, 1, 20000000,
22, 10, 1, 20000000 ]);

Flow_demands = [6000000, 6000000, 6000000];
s = [13, 19, 20];
t = [22, 21, 15];

/*
  13 - 18 - 12 - 1 - 3
       |    |    |   |
  19 - 14 - 16 - 6 - 10 - 22
       |    |    |   |
  20 - 11 - 7 -  5 - 9  - 21
       |    |    |   |
       17 - 2 -  4 - 8  - 15
*/











